proyfinal/src/viki/013/experimentInOfficeAgust.take6.output/e7490fe7-91dc-4028-8484-292feef18367.als.dat
{'cnf.clauses': '118081',
 'cnf.totvars': '69608',
 'conflict literals': '2',
 'conflicts': '3',
 'decisions': '2338',
 'memused.mb': '14.94',
 'outcome': 'UNSAT',
 'propagations': '24198',
 'restarts': '1',
 'solver.msecs': 24,
 'task.msecs': 149}
