proyfinal/src/viki/013/experimentInOfficeAgust.take6.output/e7490fe7-91dc-4028-8484-292feef18367.als.out
Reading from standard input... Use '--help' for help.
============================[ Problem Statistics ]=============================
|                                                                             |
|  Number of variables:         69608                                         |
|  Number of clauses:          118081                                         |
|  Parse time:                   0.02 s                                       |
|                                                                             |
============================[ Search Statistics ]==============================
| Conflicts |          ORIGINAL         |          LEARNT          | Progress |
|           |    Vars  Clauses Literals |    Limit  Clauses Lit/Cl |          |
===============================================================================
===============================================================================
restarts              : 1
conflicts             : 3              (123 /sec)
decisions             : 2338           (0.00 % random) (95863 /sec)
propagations          : 24198          (992169 /sec)
conflict literals     : 2              (0.00 % deleted)
Memory used           : 14.94 MB
CPU time              : 0.024389 s

UNSATISFIABLE
